(set-option :produce-unsat-cores true)
(set-logic qf_bv)
(declare-fun b () (_ bitvec 63))
(assert (bvult (bvmul b #b100101000011101001111010000011110110111111101100010011100110111) (bvmul b #b001011001000111111100000011000000101001010010000000011110110000)))
(check-sat)